p tdp 114 203
1 20
1 2
2 21
2 3
3 22
3 4
4 23
4 5
5 24
5 6
6 25
6 7
7 26
7 8
8 27
8 9
9 28
9 10
10 29
10 11
11 30
11 12
12 31
12 13
13 32
13 14
14 33
14 15
15 34
15 16
16 35
16 17
17 36
17 18
18 37
18 19
19 38
20 39
20 21
21 40
21 22
22 41
22 23
23 42
23 24
24 43
24 25
25 44
25 26
26 45
26 27
27 46
27 28
28 47
28 29
29 48
29 30
30 49
30 31
31 50
31 32
32 51
32 33
33 52
33 34
34 53
34 35
35 54
35 36
36 55
36 37
37 56
37 38
38 57
39 58
39 40
40 59
40 41
41 60
41 42
42 61
42 43
43 62
43 44
44 63
44 45
45 64
45 46
46 65
46 47
47 66
47 48
48 67
48 49
49 68
49 50
50 69
50 51
51 70
51 52
52 71
52 53
53 72
53 54
54 73
54 55
55 74
55 56
56 75
56 57
57 76
58 77
58 59
59 78
59 60
60 79
60 61
61 80
61 62
62 81
62 63
63 82
63 64
64 83
64 65
65 84
65 66
66 85
66 67
67 86
67 68
68 87
68 69
69 88
69 70
70 89
70 71
71 90
71 72
72 91
72 73
73 92
73 74
74 93
74 75
75 94
75 76
76 95
77 96
77 78
78 97
78 79
79 98
79 80
80 99
80 81
81 100
81 82
82 101
82 83
83 102
83 84
84 103
84 85
85 104
85 86
86 105
86 87
87 106
87 88
88 107
88 89
89 108
89 90
90 109
90 91
91 110
91 92
92 111
92 93
93 112
93 94
94 113
94 95
95 114
96 97
97 98
98 99
99 100
100 101
101 102
102 103
103 104
104 105
105 106
106 107
107 108
108 109
109 110
110 111
111 112
112 113
113 114
